NAME : ch150.14352039.tour
COMMENT : Cost = 1554636_14352039
COMMENT : Found by LKH [Keld Helsgaun] Thu Nov 16 20:42:42 2017
TYPE : TOUR
DIMENSION : 159
TOUR_SECTION
1
87
76
73
22
104
4
125
149
62
3
48
158
52
105
67
116
148
130
101
32
131
111
155
7
124
90
25
20
47
110
81
141
56
146
152
103
97
75
65
55
50
135
70
108
19
99
114
102
137
132
85
142
18
143
100
5
107
95
82
154
89
35
33
134
43
12
127
11
61
36
69
118
24
109
138
54
126
93
84
156
59
15
14
49
147
144
129
117
140
27
145
72
80
78
79
121
34
153
96
17
159
16
122
41
57
60
66
39
38
23
77
133
30
157
63
10
94
88
21
64
112
136
31
123
74
13
106
91
119
68
128
45
71
44
115
150
113
151
8
92
46
51
53
40
139
120
42
9
28
6
37
2
29
86
58
83
26
98
-1
EOF
